 0 11 81 70 63 87 75  9 77 40  4 63 40 60 92
64  0 12 93 40 49 83  8 29 59 34 44 72 19 10
76 95  0  0 73  8 62 36 83 99 28 63  7 10 52
56 38 73  0 18 71 15 44  0 12 17 75 79 97 93
24 36 63 19  0 30 10 60 20 27  8 86 26 87 46
47 54 86  9 45  0 18 58 92 11 10 94 35 28  3
83 84 47 14 69 60  0 51  6 88 71 68 23 35 79
98 67 82 57 77 46  3  0 29 86 21 21 81 23 94
71 20 27 75  5 49 86 89  0 82 77  3 56 14 49
87 52 13 47 49 24 20 64 52  0 47 29 60 53 11
40 91 45 97 24 36 38  9 52 67  0  1 79 68 68
61 18 51 14 28 17 87 46 52 16 70  0 84 10 62
96 57 23 86 85 26 76 66 54 17 65 57  0  2 80
50 66 88 79 93  6 92 42 22 20 25 97 54  0 72
80 93 64 63 80 38 45 35 25 95 75 72 11 76  0